<?xml version = "1.0" encoding="UTF-8" standalone="yes"?>
<CPLEXSolution version="1.2">
 <header
   problemName="ilog.cplex"
   solutionName="incumbent"
   solutionIndex="-1"
   objectiveValue="197"
   solutionTypeValue="3"
   solutionTypeString="primal"
   solutionStatusValue="101"
   solutionStatusString="integer optimal solution"
   solutionMethodString="mip"
   primalFeasible="1"
   dualFeasible="1"
   MIPNodes="746"
   MIPIterations="7775"
   writeLevel="3"/>
 <quality
   epInt="1.0000000000000001e-05"
   epRHS="9.9999999999999995e-07"
   maxIntInfeas="4.4408920985006262e-16"
   maxPrimalInfeas="0"
   maxX="9"
   maxSlack="100"/>
 <variables>
  <variable name="x_0_2_0" index="41" value="1"/>
  <variable name="x_4_0_0" index="52" value="1"/>
  <variable name="x_0_4_1" index="61" value="1"/>
  <variable name="x_9_0_1" index="75" value="1"/>
  <variable name="x_1_3_1" index="129" value="1"/>
  <variable name="x_5_1_1" index="139" value="1"/>
  <variable name="x_2_7_0" index="180" value="1"/>
  <variable name="x_3_9_1" index="249" value="1"/>
  <variable name="x_8_4_0" index="288" value="1"/>
  <variable name="x_4_5_1" index="290" value="1"/>
  <variable name="x_7_8_0" index="376" value="1"/>
  <variable name="y_0_1" index="402" value="1"/>
  <variable name="y_1_0" index="407" value="1"/>
  <variable name="y_2_1" index="410" value="1"/>
  <variable name="y_3_0" index="415" value="1"/>
  <variable name="y_4_1" index="418" value="1"/>
  <variable name="y_5_1" index="422" value="1"/>
  <variable name="y_6_0" index="427" value="1"/>
  <variable name="y_7_0" index="431" value="1"/>
  <variable name="y_8_1" index="434" value="1"/>
  <variable name="u_1_0" index="436" value="1"/>
  <variable name="u_2_0" index="437" value="1"/>
  <variable name="u_1_1" index="438" value="3"/>
  <variable name="u_2_1" index="439" value="1"/>
  <variable name="u_1_2" index="440" value="1"/>
  <variable name="u_2_2" index="441" value="1"/>
  <variable name="u_1_3" index="442" value="1.0000000000000004"/>
  <variable name="u_2_3" index="443" value="1"/>
  <variable name="u_3_0" index="444" value="1"/>
  <variable name="u_3_1" index="445" value="4"/>
  <variable name="u_3_2" index="446" value="1"/>
  <variable name="u_3_3" index="447" value="1"/>
  <variable name="u_4_0" index="448" value="9"/>
  <variable name="u_4_1" index="449" value="1"/>
  <variable name="u_4_2" index="450" value="1"/>
  <variable name="u_4_3" index="451" value="1"/>
  <variable name="u_5_0" index="452" value="1.0000000000000004"/>
  <variable name="u_5_1" index="453" value="2"/>
  <variable name="u_5_2" index="454" value="1"/>
  <variable name="u_5_3" index="455" value="1"/>
  <variable name="u_6_0" index="456" value="1"/>
  <variable name="u_6_1" index="457" value="1"/>
  <variable name="u_6_2" index="458" value="1"/>
  <variable name="u_6_3" index="459" value="1"/>
  <variable name="u_7_0" index="460" value="7"/>
  <variable name="u_7_1" index="461" value="1"/>
  <variable name="u_7_2" index="462" value="1.0000000000000004"/>
  <variable name="u_7_3" index="463" value="1"/>
  <variable name="u_8_0" index="464" value="8"/>
  <variable name="u_8_1" index="465" value="1"/>
  <variable name="u_8_2" index="466" value="1"/>
  <variable name="u_8_3" index="467" value="1.0000000000000004"/>
  <variable name="u_9_0" index="468" value="9"/>
  <variable name="u_9_1" index="469" value="5"/>
  <variable name="u_9_2" index="470" value="1.0000000000000004"/>
  <variable name="u_9_3" index="471" value="1.0000000000000004"/>
 </variables>
 <objectiveValues>
  <objective index="0" name="" value="197"/>
 </objectiveValues>
</CPLEXSolution>
